p cnf 430 1488
-191 151 0
-191 -100 0
-191 -119 0
-191 -50 0
-191 80 0
191 -151 100 119 50 -80 0
-192 62 0
-192 -133 0
-192 44 0
-192 129 0
-192 100 0
192 -62 133 -44 -129 -100 0
-193 138 0
-193 22 0
-193 23 0
-193 -50 0
-193 130 0
193 -138 -22 -23 50 -130 0
-194 30 0
-194 -9 0
-194 145 0
-194 -16 0
-194 15 0
194 -30 9 -145 16 -15 0
-195 -31 0
-195 95 0
-195 106 0
-195 29 0
-195 181 0
195 31 -95 -106 -29 -181 0
191 192 193 194 195 0
-196 89 0
-196 -33 0
-196 -154 0
-196 -137 0
-196 -90 0
196 -89 33 154 137 90 0
-197 136 0
-197 -166 0
-197 186 0
-197 -178 0
-197 -63 0
197 -136 166 -186 178 63 0
-198 -145 0
-198 -81 0
-198 171 0
-198 -37 0
-198 -135 0
198 145 81 -171 37 135 0
-199 -68 0
-199 174 0
-199 -33 0
-199 -122 0
-199 -151 0
199 68 -174 33 122 151 0
-200 -130 0
-200 165 0
-200 169 0
-200 53 0
-200 128 0
200 130 -165 -169 -53 -128 0
196 197 198 199 200 0
-201 60 0
-201 -92 0
-201 -134 0
-201 -168 0
-201 -156 0
201 -60 92 134 168 156 0
-202 157 0
-202 68 0
-202 159 0
-202 -54 0
-202 -173 0
202 -157 -68 -159 54 173 0
-203 -67 0
-203 -45 0
-203 -22 0
-203 -109 0
-203 -64 0
203 67 45 22 109 64 0
-204 -32 0
-204 -111 0
-204 -50 0
-204 107 0
-204 -167 0
204 32 111 50 -107 167 0
-205 -59 0
-205 -5 0
-205 -18 0
-205 -74 0
-205 104 0
205 59 5 18 74 -104 0
201 202 203 204 205 0
-206 -95 0
-206 -162 0
-206 4 0
-206 -11 0
-206 105 0
206 95 162 -4 11 -105 0
-207 180 0
-207 -4 0
-207 8 0
-207 69 0
-207 184 0
207 -180 4 -8 -69 -184 0
-208 145 0
-208 -85 0
-208 100 0
-208 -46 0
-208 190 0
208 -145 85 -100 46 -190 0
-209 143 0
-209 -44 0
-209 167 0
-209 5 0
-209 -71 0
209 -143 44 -167 -5 71 0
-210 -29 0
-210 122 0
-210 -11 0
-210 170 0
-210 -134 0
210 29 -122 11 -170 134 0
206 207 208 209 210 0
-211 63 0
-211 -70 0
-211 53 0
-211 -125 0
-211 159 0
211 -63 70 -53 125 -159 0
-212 -143 0
-212 33 0
-212 114 0
-212 -68 0
-212 -83 0
212 143 -33 -114 68 83 0
-213 117 0
-213 -136 0
-213 76 0
-213 -51 0
-213 172 0
213 -117 136 -76 51 -172 0
-214 -101 0
-214 -36 0
-214 131 0
-214 55 0
-214 92 0
214 101 36 -131 -55 -92 0
-215 138 0
-215 45 0
-215 22 0
-215 83 0
-215 185 0
215 -138 -45 -22 -83 -185 0
211 212 213 214 215 0
-216 -142 0
-216 9 0
-216 -81 0
-216 -85 0
-216 -178 0
216 142 -9 81 85 178 0
-217 66 0
-217 75 0
-217 -52 0
-217 -162 0
-217 -19 0
217 -66 -75 52 162 19 0
-218 -64 0
-218 21 0
-218 174 0
-218 -78 0
-218 97 0
218 64 -21 -174 78 -97 0
-219 165 0
-219 -103 0
-219 -23 0
-219 84 0
-219 38 0
219 -165 103 23 -84 -38 0
-220 -96 0
-220 41 0
-220 79 0
-220 -13 0
-220 39 0
220 96 -41 -79 13 -39 0
216 217 218 219 220 0
-221 -27 0
-221 10 0
-221 -66 0
-221 155 0
-221 -43 0
221 27 -10 66 -155 43 0
-222 38 0
-222 -36 0
-222 76 0
-222 -115 0
-222 -71 0
222 -38 36 -76 115 71 0
-223 165 0
-223 141 0
-223 -122 0
-223 27 0
-223 174 0
223 -165 -141 122 -27 -174 0
-224 -21 0
-224 139 0
-224 -150 0
-224 -11 0
-224 110 0
224 21 -139 150 11 -110 0
-225 16 0
-225 -31 0
-225 76 0
-225 -167 0
-225 73 0
225 -16 31 -76 167 -73 0
221 222 223 224 225 0
-226 -47 0
-226 -32 0
-226 132 0
-226 11 0
-226 56 0
226 47 32 -132 -11 -56 0
-227 122 0
-227 87 0
-227 18 0
-227 112 0
-227 11 0
227 -122 -87 -18 -112 -11 0
-228 -89 0
-228 -105 0
-228 -79 0
-228 -90 0
-228 -32 0
228 89 105 79 90 32 0
-229 176 0
-229 13 0
-229 41 0
-229 92 0
-229 31 0
229 -176 -13 -41 -92 -31 0
-230 -182 0
-230 19 0
-230 21 0
-230 188 0
-230 -123 0
230 182 -19 -21 -188 123 0
226 227 228 229 230 0
-231 99 0
-231 160 0
-231 -132 0
-231 6 0
-231 119 0
231 -99 -160 132 -6 -119 0
-232 65 0
-232 103 0
-232 -134 0
-232 21 0
-232 -169 0
232 -65 -103 134 -21 169 0
-233 26 0
-233 186 0
-233 135 0
-233 -80 0
-233 128 0
233 -26 -186 -135 80 -128 0
-234 12 0
-234 -162 0
-234 148 0
-234 189 0
-234 63 0
234 -12 162 -148 -189 -63 0
-235 188 0
-235 -110 0
-235 -140 0
-235 -49 0
-235 81 0
235 -188 110 140 49 -81 0
231 232 233 234 235 0
-236 -11 0
-236 -182 0
-236 -139 0
-236 -187 0
-236 -5 0
236 11 182 139 187 5 0
-237 -174 0
-237 99 0
-237 -123 0
-237 56 0
-237 -51 0
237 174 -99 123 -56 51 0
-238 169 0
-238 -166 0
-238 130 0
-238 124 0
-238 39 0
238 -169 166 -130 -124 -39 0
-239 -142 0
-239 134 0
-239 -22 0
-239 -39 0
-239 146 0
239 142 -134 22 39 -146 0
-240 -146 0
-240 -1 0
-240 -133 0
-240 -93 0
-240 -26 0
240 146 1 133 93 26 0
236 237 238 239 240 0
-241 68 0
-241 34 0
-241 99 0
-241 18 0
-241 -167 0
241 -68 -34 -99 -18 167 0
-242 -111 0
-242 145 0
-242 -109 0
-242 -71 0
-242 -78 0
242 111 -145 109 71 78 0
-243 -81 0
-243 109 0
-243 73 0
-243 25 0
-243 63 0
243 81 -109 -73 -25 -63 0
-244 30 0
-244 -141 0
-244 -133 0
-244 16 0
-244 75 0
244 -30 141 133 -16 -75 0
-245 -42 0
-245 -26 0
-245 -53 0
-245 -73 0
-245 -153 0
245 42 26 53 73 153 0
241 242 243 244 245 0
-246 -97 0
-246 -105 0
-246 -107 0
-246 73 0
-246 -35 0
246 97 105 107 -73 35 0
-247 -125 0
-247 -7 0
-247 20 0
-247 83 0
-247 -107 0
247 125 7 -20 -83 107 0
-248 -122 0
-248 65 0
-248 26 0
-248 173 0
-248 126 0
248 122 -65 -26 -173 -126 0
-249 57 0
-249 131 0
-249 117 0
-249 -121 0
-249 -189 0
249 -57 -131 -117 121 189 0
-250 126 0
-250 100 0
-250 147 0
-250 96 0
-250 136 0
250 -126 -100 -147 -96 -136 0
246 247 248 249 250 0
-251 185 0
-251 162 0
-251 -189 0
-251 -134 0
-251 -40 0
251 -185 -162 189 134 40 0
-252 178 0
-252 69 0
-252 -54 0
-252 100 0
-252 137 0
252 -178 -69 54 -100 -137 0
-253 115 0
-253 122 0
-253 41 0
-253 -79 0
-253 185 0
253 -115 -122 -41 79 -185 0
-254 -68 0
-254 -104 0
-254 -55 0
-254 -101 0
-254 127 0
254 68 104 55 101 -127 0
-255 -153 0
-255 52 0
-255 -162 0
-255 9 0
-255 67 0
255 153 -52 162 -9 -67 0
251 252 253 254 255 0
-256 -93 0
-256 -9 0
-256 187 0
-256 -103 0
-256 115 0
256 93 9 -187 103 -115 0
-257 24 0
-257 150 0
-257 -97 0
-257 50 0
-257 -187 0
257 -24 -150 97 -50 187 0
-258 95 0
-258 145 0
-258 -79 0
-258 16 0
-258 -69 0
258 -95 -145 79 -16 69 0
-259 -153 0
-259 -60 0
-259 183 0
-259 83 0
-259 54 0
259 153 60 -183 -83 -54 0
-260 71 0
-260 -164 0
-260 -183 0
-260 101 0
-260 -173 0
260 -71 164 183 -101 173 0
256 257 258 259 260 0
-261 1 0
-261 48 0
-261 137 0
-261 -15 0
-261 -156 0
261 -1 -48 -137 15 156 0
-262 184 0
-262 -160 0
-262 128 0
-262 77 0
-262 -12 0
262 -184 160 -128 -77 12 0
-263 -168 0
-263 -124 0
-263 177 0
-263 -19 0
-263 -127 0
263 168 124 -177 19 127 0
-264 -176 0
-264 155 0
-264 -129 0
-264 -58 0
-264 -50 0
264 176 -155 129 58 50 0
-265 -20 0
-265 106 0
-265 27 0
-265 39 0
-265 163 0
265 20 -106 -27 -39 -163 0
261 262 263 264 265 0
-266 140 0
-266 126 0
-266 133 0
-266 -24 0
-266 77 0
266 -140 -126 -133 24 -77 0
-267 -112 0
-267 -137 0
-267 9 0
-267 -145 0
-267 -169 0
267 112 137 -9 145 169 0
-268 88 0
-268 12 0
-268 -122 0
-268 32 0
-268 -66 0
268 -88 -12 122 -32 66 0
-269 -7 0
-269 -166 0
-269 -72 0
-269 24 0
-269 -82 0
269 7 166 72 -24 82 0
-270 14 0
-270 123 0
-270 95 0
-270 106 0
-270 163 0
270 -14 -123 -95 -106 -163 0
266 267 268 269 270 0
-271 8 0
-271 -146 0
-271 -90 0
-271 -1 0
-271 -118 0
271 -8 146 90 1 118 0
-272 106 0
-272 -9 0
-272 -49 0
-272 -134 0
-272 -165 0
272 -106 9 49 134 165 0
-273 -39 0
-273 30 0
-273 -55 0
-273 -95 0
-273 119 0
273 39 -30 55 95 -119 0
-274 161 0
-274 170 0
-274 157 0
-274 156 0
-274 15 0
274 -161 -170 -157 -156 -15 0
-275 75 0
-275 -9 0
-275 -135 0
-275 23 0
-275 130 0
275 -75 9 135 -23 -130 0
271 272 273 274 275 0
-276 -44 0
-276 6 0
-276 55 0
-276 -129 0
-276 64 0
276 44 -6 -55 129 -64 0
-277 160 0
-277 123 0
-277 -84 0
-277 -172 0
-277 -118 0
277 -160 -123 84 172 118 0
-278 29 0
-278 184 0
-278 38 0
-278 -183 0
-278 119 0
278 -29 -184 -38 183 -119 0
-279 -93 0
-279 12 0
-279 -150 0
-279 156 0
-279 117 0
279 93 -12 150 -156 -117 0
-280 163 0
-280 -103 0
-280 -153 0
-280 -140 0
-280 -154 0
280 -163 103 153 140 154 0
276 277 278 279 280 0
-281 113 0
-281 87 0
-281 -95 0
-281 -122 0
-281 -142 0
281 -113 -87 95 122 142 0
-282 -15 0
-282 -148 0
-282 90 0
-282 51 0
-282 122 0
282 15 148 -90 -51 -122 0
-283 113 0
-283 150 0
-283 69 0
-283 -120 0
-283 -129 0
283 -113 -150 -69 120 129 0
-284 -121 0
-284 122 0
-284 111 0
-284 -102 0
-284 -185 0
284 121 -122 -111 102 185 0
-285 -75 0
-285 179 0
-285 121 0
-285 -55 0
-285 -44 0
285 75 -179 -121 55 44 0
281 282 283 284 285 0
-286 -177 0
-286 -42 0
-286 126 0
-286 95 0
-286 -65 0
286 177 42 -126 -95 65 0
-287 -183 0
-287 -97 0
-287 -124 0
-287 166 0
-287 141 0
287 183 97 124 -166 -141 0
-288 -63 0
-288 41 0
-288 -36 0
-288 -180 0
-288 -101 0
288 63 -41 36 180 101 0
-289 152 0
-289 143 0
-289 -165 0
-289 19 0
-289 46 0
289 -152 -143 165 -19 -46 0
-290 -107 0
-290 64 0
-290 37 0
-290 -173 0
-290 24 0
290 107 -64 -37 173 -24 0
286 287 288 289 290 0
-291 139 0
-291 -187 0
-291 63 0
-291 -179 0
-291 -127 0
291 -139 187 -63 179 127 0
-292 -119 0
-292 -97 0
-292 143 0
-292 34 0
-292 -187 0
292 119 97 -143 -34 187 0
-293 42 0
-293 -138 0
-293 19 0
-293 156 0
-293 55 0
293 -42 138 -19 -156 -55 0
-294 -142 0
-294 172 0
-294 -119 0
-294 -175 0
-294 91 0
294 142 -172 119 175 -91 0
-295 -82 0
-295 -187 0
-295 182 0
-295 92 0
-295 -185 0
295 82 187 -182 -92 185 0
291 292 293 294 295 0
-296 -182 0
-296 79 0
-296 -13 0
-296 93 0
-296 6 0
296 182 -79 13 -93 -6 0
-297 95 0
-297 -85 0
-297 10 0
-297 110 0
-297 -58 0
297 -95 85 -10 -110 58 0
-298 -33 0
-298 -39 0
-298 -161 0
-298 141 0
-298 -116 0
298 33 39 161 -141 116 0
-299 51 0
-299 -140 0
-299 162 0
-299 -182 0
-299 -145 0
299 -51 140 -162 182 145 0
-300 -150 0
-300 -16 0
-300 106 0
-300 142 0
-300 -186 0
300 150 16 -106 -142 186 0
296 297 298 299 300 0
-301 -25 0
-301 -32 0
-301 -106 0
-301 136 0
-301 142 0
301 25 32 106 -136 -142 0
-302 -11 0
-302 181 0
-302 134 0
-302 166 0
-302 -141 0
302 11 -181 -134 -166 141 0
-303 88 0
-303 8 0
-303 68 0
-303 175 0
-303 141 0
303 -88 -8 -68 -175 -141 0
-304 177 0
-304 -52 0
-304 -51 0
-304 -143 0
-304 170 0
304 -177 52 51 143 -170 0
-305 1 0
-305 -54 0
-305 -100 0
-305 166 0
-305 134 0
305 -1 54 100 -166 -134 0
301 302 303 304 305 0
-306 -159 0
-306 -47 0
-306 -88 0
-306 -25 0
-306 171 0
306 159 47 88 25 -171 0
-307 -153 0
-307 17 0
-307 -6 0
-307 -48 0
-307 -46 0
307 153 -17 6 48 46 0
-308 49 0
-308 60 0
-308 -57 0
-308 -59 0
-308 -117 0
308 -49 -60 57 59 117 0
-309 -22 0
-309 181 0
-309 -116 0
-309 36 0
-309 86 0
309 22 -181 116 -36 -86 0
-310 180 0
-310 -20 0
-310 -18 0
-310 -11 0
-310 -60 0
310 -180 20 18 11 60 0
306 307 308 309 310 0
-311 -187 0
-311 107 0
-311 153 0
-311 168 0
-311 -1 0
311 187 -107 -153 -168 1 0
-312 -152 0
-312 -58 0
-312 184 0
-312 -137 0
-312 -107 0
312 152 58 -184 137 107 0
-313 -178 0
-313 -171 0
-313 67 0
-313 114 0
-313 149 0
313 178 171 -67 -114 -149 0
-314 93 0
-314 -171 0
-314 -161 0
-314 -90 0
-314 -126 0
314 -93 171 161 90 126 0
-315 -82 0
-315 -109 0
-315 -187 0
-315 1 0
-315 130 0
315 82 109 187 -1 -130 0
311 312 313 314 315 0
-316 68 0
-316 -62 0
-316 126 0
-316 -12 0
-316 185 0
316 -68 62 -126 12 -185 0
-317 -125 0
-317 -66 0
-317 -23 0
-317 190 0
-317 60 0
317 125 66 23 -190 -60 0
-318 177 0
-318 -83 0
-318 -131 0
-318 -159 0
-318 76 0
318 -177 83 131 159 -76 0
-319 147 0
-319 152 0
-319 15 0
-319 163 0
-319 -176 0
319 -147 -152 -15 -163 176 0
-320 97 0
-320 160 0
-320 -1 0
-320 -131 0
-320 53 0
320 -97 -160 1 131 -53 0
316 317 318 319 320 0
-321 -61 0
-321 55 0
-321 89 0
-321 -116 0
-321 176 0
321 61 -55 -89 116 -176 0
-322 -133 0
-322 -181 0
-322 65 0
-322 -163 0
-322 106 0
322 133 181 -65 163 -106 0
-323 39 0
-323 -152 0
-323 181 0
-323 -151 0
-323 46 0
323 -39 152 -181 151 -46 0
-324 140 0
-324 103 0
-324 169 0
-324 -6 0
-324 148 0
324 -140 -103 -169 6 -148 0
-325 58 0
-325 -179 0
-325 168 0
-325 132 0
-325 -186 0
325 -58 179 -168 -132 186 0
321 322 323 324 325 0
-326 164 0
-326 -175 0
-326 -170 0
-326 25 0
-326 -176 0
326 -164 175 170 -25 176 0
-327 148 0
-327 -98 0
-327 -102 0
-327 -16 0
-327 108 0
327 -148 98 102 16 -108 0
-328 -47 0
-328 144 0
-328 -64 0
-328 33 0
-328 170 0
328 47 -144 64 -33 -170 0
-329 119 0
-329 -36 0
-329 -185 0
-329 -165 0
-329 -99 0
329 -119 36 185 165 99 0
-330 110 0
-330 -74 0
-330 135 0
-330 67 0
-330 138 0
330 -110 74 -135 -67 -138 0
326 327 328 329 330 0
-331 -24 0
-331 144 0
-331 167 0
-331 -178 0
-331 100 0
331 24 -144 -167 178 -100 0
-332 -182 0
-332 -64 0
-332 83 0
-332 -150 0
-332 19 0
332 182 64 -83 150 -19 0
-333 165 0
-333 17 0
-333 177 0
-333 -108 0
-333 21 0
333 -165 -17 -177 108 -21 0
-334 79 0
-334 -121 0
-334 82 0
-334 143 0
-334 6 0
334 -79 121 -82 -143 -6 0
-335 95 0
-335 97 0
-335 -11 0
-335 168 0
-335 -181 0
335 -95 -97 11 -168 181 0
331 332 333 334 335 0
-336 68 0
-336 -51 0
-336 122 0
-336 -40 0
-336 3 0
336 -68 51 -122 40 -3 0
-337 92 0
-337 -46 0
-337 171 0
-337 42 0
-337 -26 0
337 -92 46 -171 -42 26 0
-338 -37 0
-338 -134 0
-338 -68 0
-338 74 0
-338 -13 0
338 37 134 68 -74 13 0
-339 -88 0
-339 -52 0
-339 98 0
-339 122 0
-339 -44 0
339 88 52 -98 -122 44 0
-340 71 0
-340 -65 0
-340 23 0
-340 -91 0
-340 -68 0
340 -71 65 -23 91 68 0
336 337 338 339 340 0
-341 -56 0
-341 67 0
-341 -77 0
-341 -39 0
-341 152 0
341 56 -67 77 39 -152 0
-342 -163 0
-342 47 0
-342 -14 0
-342 153 0
-342 183 0
342 163 -47 14 -153 -183 0
-343 132 0
-343 93 0
-343 -138 0
-343 -18 0
-343 167 0
343 -132 -93 138 18 -167 0
-344 -27 0
-344 -110 0
-344 147 0
-344 156 0
-344 135 0
344 27 110 -147 -156 -135 0
-345 52 0
-345 -161 0
-345 -175 0
-345 -84 0
-345 83 0
345 -52 161 175 84 -83 0
341 342 343 344 345 0
-346 58 0
-346 -5 0
-346 -182 0
-346 -129 0
-346 56 0
346 -58 5 182 129 -56 0
-347 71 0
-347 -87 0
-347 101 0
-347 96 0
-347 36 0
347 -71 87 -101 -96 -36 0
-348 -30 0
-348 158 0
-348 9 0
-348 -71 0
-348 75 0
348 30 -158 -9 71 -75 0
-349 138 0
-349 -69 0
-349 85 0
-349 -82 0
-349 171 0
349 -138 69 -85 82 -171 0
-350 10 0
-350 120 0
-350 -28 0
-350 107 0
-350 -18 0
350 -10 -120 28 -107 18 0
346 347 348 349 350 0
-351 6 0
-351 -125 0
-351 -30 0
-351 -10 0
-351 -67 0
351 -6 125 30 10 67 0
-352 71 0
-352 -173 0
-352 -63 0
-352 3 0
-352 61 0
352 -71 173 63 -3 -61 0
-353 107 0
-353 16 0
-353 -124 0
-353 52 0
-353 62 0
353 -107 -16 124 -52 -62 0
-354 -187 0
-354 -47 0
-354 59 0
-354 -179 0
-354 -185 0
354 187 47 -59 179 185 0
-355 87 0
-355 99 0
-355 107 0
-355 -72 0
-355 -52 0
355 -87 -99 -107 72 52 0
351 352 353 354 355 0
-356 -128 0
-356 80 0
-356 42 0
-356 116 0
-356 -38 0
356 128 -80 -42 -116 38 0
-357 -155 0
-357 154 0
-357 71 0
-357 158 0
-357 12 0
357 155 -154 -71 -158 -12 0
-358 93 0
-358 80 0
-358 -70 0
-358 -124 0
-358 79 0
358 -93 -80 70 124 -79 0
-359 73 0
-359 182 0
-359 171 0
-359 127 0
-359 68 0
359 -73 -182 -171 -127 -68 0
-360 -177 0
-360 156 0
-360 -143 0
-360 149 0
-360 159 0
360 177 -156 143 -149 -159 0
356 357 358 359 360 0
-361 171 0
-361 -127 0
-361 55 0
-361 -112 0
-361 -25 0
361 -171 127 -55 112 25 0
-362 57 0
-362 -173 0
-362 -59 0
-362 122 0
-362 145 0
362 -57 173 59 -122 -145 0
-363 154 0
-363 -93 0
-363 3 0
-363 77 0
-363 49 0
363 -154 93 -3 -77 -49 0
-364 24 0
-364 -169 0
-364 77 0
-364 179 0
-364 85 0
364 -24 169 -77 -179 -85 0
-365 -117 0
-365 -6 0
-365 91 0
-365 -159 0
-365 158 0
365 117 6 -91 159 -158 0
361 362 363 364 365 0
-366 87 0
-366 58 0
-366 -127 0
-366 -8 0
-366 -144 0
366 -87 -58 127 8 144 0
-367 190 0
-367 -169 0
-367 -95 0
-367 -12 0
-367 71 0
367 -190 169 95 12 -71 0
-368 -172 0
-368 -144 0
-368 -167 0
-368 37 0
-368 -49 0
368 172 144 167 -37 49 0
-369 39 0
-369 -117 0
-369 -84 0
-369 143 0
-369 -67 0
369 -39 117 84 -143 67 0
-370 188 0
-370 -126 0
-370 -36 0
-370 65 0
-370 -53 0
370 -188 126 36 -65 53 0
366 367 368 369 370 0
-371 117 0
-371 -106 0
-371 39 0
-371 169 0
-371 69 0
371 -117 106 -39 -169 -69 0
-372 83 0
-372 49 0
-372 64 0
-372 -190 0
-372 77 0
372 -83 -49 -64 190 -77 0
-373 46 0
-373 133 0
-373 156 0
-373 -146 0
-373 58 0
373 -46 -133 -156 146 -58 0
-374 -123 0
-374 -75 0
-374 -111 0
-374 -81 0
-374 -147 0
374 123 75 111 81 147 0
-375 49 0
-375 -33 0
-375 110 0
-375 -155 0
-375 119 0
375 -49 33 -110 155 -119 0
371 372 373 374 375 0
-376 160 0
-376 -111 0
-376 -85 0
-376 -50 0
-376 148 0
376 -160 111 85 50 -148 0
-377 149 0
-377 182 0
-377 -161 0
-377 -141 0
-377 94 0
377 -149 -182 161 141 -94 0
-378 -60 0
-378 -76 0
-378 28 0
-378 181 0
-378 90 0
378 60 76 -28 -181 -90 0
-379 -184 0
-379 -101 0
-379 75 0
-379 -8 0
-379 164 0
379 184 101 -75 8 -164 0
-380 109 0
-380 9 0
-380 -115 0
-380 -55 0
-380 -130 0
380 -109 -9 115 55 130 0
376 377 378 379 380 0
-381 121 0
-381 112 0
-381 -135 0
-381 108 0
-381 -164 0
381 -121 -112 135 -108 164 0
-382 173 0
-382 184 0
-382 97 0
-382 -36 0
-382 -18 0
382 -173 -184 -97 36 18 0
-383 141 0
-383 79 0
-383 -175 0
-383 -77 0
-383 -167 0
383 -141 -79 175 77 167 0
-384 153 0
-384 139 0
-384 149 0
-384 -81 0
-384 -162 0
384 -153 -139 -149 81 162 0
-385 -26 0
-385 169 0
-385 51 0
-385 -78 0
-385 -79 0
385 26 -169 -51 78 79 0
381 382 383 384 385 0
-386 -9 0
-386 -20 0
-386 21 0
-386 38 0
-386 -58 0
386 9 20 -21 -38 58 0
-387 -121 0
-387 50 0
-387 37 0
-387 135 0
-387 -81 0
387 121 -50 -37 -135 81 0
-388 -146 0
-388 34 0
-388 157 0
-388 -163 0
-388 145 0
388 146 -34 -157 163 -145 0
-389 -103 0
-389 88 0
-389 -132 0
-389 136 0
-389 152 0
389 103 -88 132 -136 -152 0
-390 179 0
-390 -47 0
-390 32 0
-390 -70 0
-390 -173 0
390 -179 47 -32 70 173 0
386 387 388 389 390 0
-391 29 0
-391 -115 0
-391 45 0
-391 130 0
-391 108 0
391 -29 115 -45 -130 -108 0
-392 147 0
-392 -25 0
-392 56 0
-392 73 0
-392 -122 0
392 -147 25 -56 -73 122 0
-393 160 0
-393 -71 0
-393 -52 0
-393 109 0
-393 29 0
393 -160 71 52 -109 -29 0
-394 -110 0
-394 -148 0
-394 -66 0
-394 -136 0
-394 159 0
394 110 148 66 136 -159 0
-395 -85 0
-395 129 0
-395 -64 0
-395 102 0
-395 149 0
395 85 -129 64 -102 -149 0
391 392 393 394 395 0
-396 -155 0
-396 17 0
-396 79 0
-396 -133 0
-396 138 0
396 155 -17 -79 133 -138 0
-397 -112 0
-397 155 0
-397 79 0
-397 93 0
-397 146 0
397 112 -155 -79 -93 -146 0
-398 -101 0
-398 -121 0
-398 -23 0
-398 171 0
-398 -111 0
398 101 121 23 -171 111 0
-399 -21 0
-399 45 0
-399 -29 0
-399 -24 0
-399 110 0
399 21 -45 29 24 -110 0
-400 -83 0
-400 -48 0
-400 -68 0
-400 -117 0
-400 60 0
400 83 48 68 117 -60 0
396 397 398 399 400 0
-401 19 0
-401 -21 0
-401 53 0
-401 182 0
-401 -41 0
401 -19 21 -53 -182 41 0
-402 158 0
-402 -167 0
-402 -106 0
-402 22 0
-402 -44 0
402 -158 167 106 -22 44 0
-403 60 0
-403 120 0
-403 -40 0
-403 -28 0
-403 134 0
403 -60 -120 40 28 -134 0
-404 83 0
-404 173 0
-404 -53 0
-404 -135 0
-404 128 0
404 -83 -173 53 135 -128 0
-405 150 0
-405 -170 0
-405 -2 0
-405 175 0
-405 128 0
405 -150 170 2 -175 -128 0
401 402 403 404 405 0
-406 173 0
-406 132 0
-406 -26 0
-406 -175 0
-406 163 0
406 -173 -132 26 175 -163 0
-407 -186 0
-407 -166 0
-407 -184 0
-407 13 0
-407 126 0
407 186 166 184 -13 -126 0
-408 33 0
-408 -189 0
-408 -16 0
-408 -117 0
-408 125 0
408 -33 189 16 117 -125 0
-409 11 0
-409 155 0
-409 82 0
-409 190 0
-409 -56 0
409 -11 -155 -82 -190 56 0
-410 102 0
-410 -74 0
-410 -99 0
-410 -71 0
-410 -31 0
410 -102 74 99 71 31 0
406 407 408 409 410 0
-411 -35 0
-411 -36 0
-411 189 0
-411 65 0
-411 155 0
411 35 36 -189 -65 -155 0
-412 61 0
-412 56 0
-412 78 0
-412 -168 0
-412 97 0
412 -61 -56 -78 168 -97 0
-413 -104 0
-413 57 0
-413 -28 0
-413 -87 0
-413 95 0
413 104 -57 28 87 -95 0
-414 17 0
-414 -176 0
-414 13 0
-414 30 0
-414 -2 0
414 -17 176 -13 -30 2 0
-415 182 0
-415 94 0
-415 47 0
-415 167 0
-415 16 0
415 -182 -94 -47 -167 -16 0
411 412 413 414 415 0
-416 84 0
-416 -90 0
-416 175 0
-416 20 0
-416 -166 0
416 -84 90 -175 -20 166 0
-417 -19 0
-417 12 0
-417 -51 0
-417 -111 0
-417 44 0
417 19 -12 51 111 -44 0
-418 -138 0
-418 -109 0
-418 106 0
-418 -172 0
-418 -125 0
418 138 109 -106 172 125 0
-419 -104 0
-419 11 0
-419 -36 0
-419 20 0
-419 -76 0
419 104 -11 36 -20 76 0
-420 -114 0
-420 4 0
-420 75 0
-420 -16 0
-420 -47 0
420 114 -4 -75 16 47 0
416 417 418 419 420 0
-421 -56 0
-421 -40 0
-421 87 0
-421 -118 0
-421 182 0
421 56 40 -87 118 -182 0
-422 104 0
-422 94 0
-422 188 0
-422 -139 0
-422 182 0
422 -104 -94 -188 139 -182 0
-423 17 0
-423 140 0
-423 -142 0
-423 -182 0
-423 185 0
423 -17 -140 142 182 -185 0
-424 187 0
-424 -59 0
-424 137 0
-424 24 0
-424 -99 0
424 -187 59 -137 -24 99 0
-425 -62 0
-425 -26 0
-425 100 0
-425 -56 0
-425 93 0
425 62 26 -100 56 -93 0
421 422 423 424 425 0
-426 2 0
-426 139 0
-426 105 0
-426 -26 0
-426 -157 0
426 -2 -139 -105 26 157 0
-427 45 0
-427 -151 0
-427 -84 0
-427 -52 0
-427 -82 0
427 -45 151 84 52 82 0
-428 185 0
-428 -67 0
-428 -164 0
-428 -146 0
-428 -92 0
428 -185 67 164 146 92 0
-429 -59 0
-429 -107 0
-429 119 0
-429 137 0
-429 154 0
429 59 107 -119 -137 -154 0
-430 171 0
-430 -35 0
-430 -150 0
-430 -62 0
-430 -44 0
430 -171 35 150 62 44 0
426 427 428 429 430 0
